; benchmark generated from python API
(set-info :status unknown)
(declare-datatypes ((RealState 0)) (((RMk1 (rval1 Real)) (RMk2 (rval2 Real)))))
 (assert
 (forall ((|v11:0| Real) )(exists ((|v10:1_st| RealState) (val!2892 Real) )(forall ((|v9:2| Real) )(exists ((|v8:3_st| RealState) (val!2893 Real) )(forall ((|v7:4| Real) )(exists ((|v6:5_st| RealState) (val!2894 Real) )(forall ((|v5:6| Real) )(exists ((|v4:7_st| RealState) (val!2895 Real) )(forall ((|v3:8| Real) )(exists ((|v2:9_st| RealState) (val!2896 Real) )(forall ((|v1:10| Real) )(exists ((|v0:11_st| RealState) (val!2897 Real) )(let ((?x2779 (+ (+ (* (- 14.0) (rval2 |v0:11_st|)) (* 20.0 (rval2 |v8:3_st|))) (* 17.0 (rval2 |v2:9_st|)))))
 (let ((?x451 (rval2 |v6:5_st|)))
 (let ((?x3138 (* 8.0 ?x451)))
 (let ((?x2140 (+ (+ (+ (* 16.0 (rval2 |v4:7_st|)) (* (- 6.0) (rval2 |v10:1_st|))) ?x3138) (* 20.0 (rval2 |v4:7_st|)))))
 (let ((?x1457 (* 20.0 |v7:4|)))
 (let ((?x888 (+ (+ (+ (* (- 14.0) |v3:8|) (* 15.0 |v1:10|)) (* 2.0 (rval2 |v4:7_st|))) ?x1457)))
 (let ((?x2412 (- 3.0)))
 (let ((?x1080 (+ (+ (+ (* 9.0 |v3:8|) (* (- 2.0) |v11:0|)) (* (- 15.0) |v3:8|)) (* 3.0 (rval2 |v10:1_st|)))))
 (let ((?x2498 (- 5.0)))
 (let ((?x1898 (rval2 |v4:7_st|)))
 (let ((?x61 (- 6.0)))
 (let ((?x3188 (* ?x61 ?x1898)))
 (let ((?x600 (+ (+ (+ (* (- 7.0) |v3:8|) (* (- 20.0) |v9:2|)) ?x3188) (* 0.0 ?x1898))))
 (let (($x2833 (or (or (<= ?x600 ?x2498) (<= ?x1080 ?x2412)) (and (<= ?x888 17.0) (<= ?x2140 1.0)))))
 (let ((?x2439 (+ (+ (+ (* (- 7.0) |v9:2|) (* (- 19.0) |v1:10|)) |v7:4|) (* ?x2498 (rval2 |v8:3_st|)))))
 (let ((?x2251 (- 17.0)))
 (let ((?x864 (- 14.0)))
 (let ((?x794 (* ?x864 |v3:8|)))
 (let ((?x3096 (+ (+ (+ (* (- 4.0) ?x1898) (* 17.0 (rval2 |v10:1_st|))) ?x794) (* (- 10.0) (rval2 |v0:11_st|)))))
 (let ((?x445 (- 13.0)))
 (let ((?x1592 (rval2 |v2:9_st|)))
 (let ((?x1768 (* 11.0 ?x1592)))
 (let ((?x1487 (+ (+ (+ (* (- 11.0) |v1:10|) (* 8.0 |v11:0|)) (* 17.0 (rval2 |v8:3_st|))) ?x1768)))
 (let ((?x801 (- 20.0)))
 (let ((?x2960 (+ (+ (+ (* 7.0 |v9:2|) (* 10.0 ?x451)) (* 17.0 |v7:4|)) (* 0.0 |v5:6|))))
 (let ((?x1452 (+ (+ (* 9.0 (rval2 |v0:11_st|)) (* (- 9.0) ?x1592)) (* (- 2.0) |v9:2|))))
 (let ((?x656 (- 11.0)))
 (let ((?x2542 (rval2 |v10:1_st|)))
 (let ((?x347 (- 19.0)))
 (let ((?x2874 (* ?x347 ?x2542)))
 (let (($x2666 (<= (+ (+ (+ (* (- 18.0) |v5:6|) (* 6.0 ?x1898)) (* ?x801 |v1:10|)) ?x2874) ?x656)))
 (let (($x2238 (or (and $x2666 (<= (+ ?x1452 (* (- 10.0) |v9:2|)) 20.0)) (and (<= ?x2960 ?x801) (<= ?x1487 ?x445)))))
 (let (($x1979 (and (and (or $x2238 (<= ?x3096 ?x2251)) (and (<= ?x2439 15.0) $x2833)) (<= (+ ?x2779 (* 20.0 ?x1592)) 8.0))))
 (let ((?x1808 (* 9.0 ?x2542)))
 (let (($x2375 (<= (+ (+ (+ (* 2.0 |v7:4|) ?x1592) (* (- 18.0) |v5:6|)) ?x1808) 10.0)))
 (let ((?x1638 (* ?x445 ?x1592)))
 (let (($x77 (<= (+ (+ (+ (* 6.0 (rval2 |v8:3_st|)) (* 11.0 ?x1898)) ?x3188) ?x1638) ?x445)))
 (let ((?x48 (- 9.0)))
 (let ((?x770 (+ (+ (+ (* (- 12.0) |v7:4|) (* (- 10.0) |v5:6|)) (* 7.0 |v7:4|)) (* (- 7.0) (rval2 |v8:3_st|)))))
 (let ((?x1867 (+ (+ (+ (* 6.0 |v1:10|) (* (- 10.0) |v3:8|)) (* (- 15.0) |v1:10|)) (* (- 4.0) ?x451))))
 (let ((?x66 (+ (+ (+ (* 16.0 |v7:4|) (* 11.0 |v5:6|)) (* (- 18.0) |v1:10|)) (* 11.0 ?x451))))
 (let ((?x1177 (- 12.0)))
 (let ((?x1711 (+ (+ (+ (* 5.0 |v7:4|) (* (- 8.0) |v3:8|)) (* 3.0 |v3:8|)) (* ?x2251 (rval2 |v8:3_st|)))))
 (let (($x2370 (or (or (<= ?x1711 ?x1177) (<= ?x66 20.0)) (or (or (<= ?x1867 5.0) (<= ?x770 ?x48)) (and $x77 $x2375)))))
 (let (($x1576 (<= (+ (+ (+ (* 12.0 |v7:4|) (* 8.0 ?x1898)) (* 13.0 ?x1592)) ?x2874) 18.0)))
 (let ((?x86 (+ (+ (+ (* (- 15.0) ?x1898) (* 6.0 (rval2 |v0:11_st|))) (* 2.0 ?x1898)) (* (- 10.0) |v1:10|))))
 (let ((?x2176 (- 16.0)))
 (let ((?x1349 (+ (+ (+ (* ?x2498 |v3:8|) (* (- 1.0) (rval2 |v0:11_st|))) (* ?x1177 |v9:2|)) (* ?x801 |v5:6|))))
 (let ((?x403 (* 9.0 |v5:6|)))
 (let ((?x2552 (+ (+ (+ (* ?x2498 ?x2542) (* 12.0 (rval2 |v8:3_st|))) (* ?x347 |v1:10|)) ?x403)))
 (let (($x262 (and (and (<= ?x2552 14.0) (<= ?x1349 ?x2176)) (and (<= ?x86 2.0) $x1576))))
 (let ((?x1024 (+ (+ (+ (* 15.0 |v5:6|) (* (- 4.0) |v11:0|)) (* 18.0 ?x2542)) (* 14.0 |v9:2|))))
 (let ((?x2225 (- 10.0)))
 (let ((?x2713 (+ (+ (+ (* ?x2251 |v11:0|) (* 6.0 |v9:2|)) (* ?x2251 |v7:4|)) (* (- 8.0) ?x2542))))
 (let ((?x3064 (* 15.0 ?x451)))
 (let (($x1801 (<= (+ (+ (+ (* (- 8.0) ?x1592) (* ?x445 |v9:2|)) (* ?x2412 |v9:2|)) ?x3064) ?x347)))
 (let ((?x2676 (+ (+ (+ (* 9.0 |v7:4|) (* 12.0 ?x1592)) (* ?x2412 ?x451)) (* (- 18.0) ?x1592))))
 (let (($x1248 (or (or (<= ?x2676 8.0) $x1801) (or (<= ?x2713 ?x2225) (<= ?x1024 7.0)))))
 (let ((?x2650 (- 7.0)))
 (let ((?x817 (+ (+ (+ (* 18.0 |v3:8|) (* 0.0 ?x1592)) |v9:2|) (* (- 1.0) |v3:8|))))
 (let ((?x431 (+ (+ (+ (* ?x445 (rval2 |v8:3_st|)) (* ?x2498 |v5:6|)) (* 7.0 (rval2 |v0:11_st|))) (* ?x61 (rval2 |v0:11_st|)))))
 (let ((?x1737 (- 18.0)))
 (let ((?x929 (* 9.0 |v11:0|)))
 (let ((?x1616 (+ (+ (+ (* 14.0 |v7:4|) (* 7.0 (rval2 |v0:11_st|))) (* 11.0 |v9:2|)) ?x929)))
 (let (($x139 (<= (+ (+ (+ (* 18.0 ?x451) ?x1638) (* ?x48 |v11:0|)) (* 0.0 |v11:0|)) 3.0)))
 (let (($x2331 (<= (+ (+ (+ (* 7.0 |v11:0|) ?x403) (* 0.0 |v1:10|)) (* ?x2498 |v3:8|)) 11.0)))
 (let ((?x1181 (* 12.0 |v5:6|)))
 (let ((?x669 (+ (+ (+ (* ?x1737 (rval2 |v0:11_st|)) (* ?x2251 ?x451)) (* ?x1177 (rval2 |v0:11_st|))) ?x1181)))
 (let ((?x1723 (+ (+ (+ (* 2.0 (rval2 |v0:11_st|)) (* (- 15.0) ?x1592)) (* ?x2650 |v11:0|)) (* 14.0 ?x1592))))
 (let (($x2610 (<= (+ (+ (+ (* 5.0 |v7:4|) (* ?x2176 |v7:4|)) ?x1768) (* ?x864 ?x2542)) ?x2650)))
 (let ((?x154 (+ (+ (+ (* ?x801 ?x451) (* ?x347 (rval2 |v8:3_st|))) (* ?x2498 ?x1592)) (* ?x2251 ?x1898))))
 (let (($x1286 (or (or (<= ?x154 ?x347) $x2610) (and (<= ?x1723 6.0) (<= ?x669 2.0)))))
 (let (($x401 (and (or $x1286 (and (or $x2331 $x139) (or (<= ?x1616 ?x1737) (<= ?x431 16.0)))) (<= ?x817 ?x2650))))
 (let (($x1423 (not (= |v0:11_st| (RMk1 val!2897)))))
 (let (($x937 (not (= |v2:9_st| (RMk1 val!2896)))))
 (let (($x1277 (not (= |v4:7_st| (RMk1 val!2895)))))
 (let (($x1151 (not (= |v6:5_st| (RMk1 val!2894)))))
 (let (($x1011 (not (= |v8:3_st| (RMk1 val!2893)))))
 (let (($x439 (not (= |v10:1_st| (RMk1 val!2892)))))
 (and $x439 $x1011 $x1151 $x1277 $x937 $x1423 (or (or $x401 (or (and $x1248 $x262) $x2370)) $x1979))))))))))))))))))))))))))))))))))))))))))))))))))))))))))))))))))))))))))))))))))
 )
 )
 )
 )
 )
 )
 )
 )
 )
 )
 )
 )
(check-sat)
